db/data/20747242131082878433042025980286302704.z3.out
unsat
-------------------
214.444561769
